interdiction/MCDM/NO_CORR/GEN_FROM_60/15_ITEMS_1000_GEN/K5015W06.KNP.mps
NAME          BLANK   
ROWS
 N  OBJROW
 L  R0000000
COLUMNS
    C0000000  OBJROW     -417.         R0000000  549.        
    C0000001  OBJROW     -429.         R0000000  641.        
    C0000002  OBJROW     -117.         R0000000  320.        
    C0000003  OBJROW     -37.          R0000000  49.         
    C0000004  OBJROW     -69.          R0000000  402.        
    C0000005  OBJROW     -321.         R0000000  400.        
    C0000006  OBJROW     -473.         R0000000  121.        
    C0000007  OBJROW     -18.          R0000000  512.        
    C0000008  OBJROW     -725.         R0000000  217.        
    C0000009  OBJROW     -859.         R0000000  889.        
    C0000010  OBJROW     -167.         R0000000  100.        
    C0000011  OBJROW     -892.         R0000000  584.        
    C0000012  OBJROW     -966.         R0000000  771.        
    C0000013  OBJROW     -124.         R0000000  721.        
    C0000014  OBJROW     -850.         R0000000  402.        
RHS
    RHS       R0000000  14444.      
BOUNDS
 BV BOUND     C0000000  1.          
 BV BOUND     C0000001  1.          
 BV BOUND     C0000002  1.          
 BV BOUND     C0000003  1.          
 BV BOUND     C0000004  1.          
 BV BOUND     C0000005  1.          
 BV BOUND     C0000006  1.          
 BV BOUND     C0000007  1.          
 BV BOUND     C0000008  1.          
 BV BOUND     C0000009  1.          
 BV BOUND     C0000010  1.          
 BV BOUND     C0000011  1.          
 BV BOUND     C0000012  1.          
 BV BOUND     C0000013  1.          
 BV BOUND     C0000014  1.          
ENDATA
