data/MCDM/NO_CORR/GEN_FROM_60/15_ITEMS_1000_GEN/K5015W06.KNP.txt
N 15
M 16
LC 15
LC 16
LC 17
LC 18
LC 19
LC 20
LC 21
LC 22
LC 23
LC 24
LC 25
LC 26
LC 27
LC 28
LC 29
LR 1
LR 2
LR 3
LR 4
LR 5
LR 6
LR 7
LR 8
LR 9
LR 10
LR 11
LR 12
LR 13
LR 14
LR 15
LR 16
LO -417
LO -429
LO -117
LO -37
LO -69
LO -321
LO -473
LO -18
LO -725
LO -859
LO -167
LO -892
LO -966
LO -124
LO -850
OS 1
IC 162
IC 9
IC 128
IC 934
IC 805
IC 709
IC 659
IC 478
IC 986
IC 841
IC 72
IC 672
IC 74
IC 361
IC 965
IB 3928
